Traveling Salesman Problem/TSP_generados/Aleatorio1621103285_8.tsp
NAME: Aleatorio1621103285_8.tsp
COMMENT: Randomly generated scenario
TYPE: TSP
DIMENSION: 8
EDGE_WEIGHT_TYPE: ATT
NODE_COORD_SECTION
1 13.61 33.77
2 14.76 6.74
3 3.13 43.92
4 3.23 24.42
5 42.36 43.29
6 21.91 8.54
7 20.65 32.57
8 14.19 5.51
