Traveling Salesman Problem/TSP_generados/Aleatorio1621103285_8.opt.tour
NAME: Aleatorio1621103285_8.opt.tour
COMMENT: Optimal solution for Aleatorio1621103285_8 (136.34981626529412)
TYPE: TOUR
DIMENSION: 8
TOUR_SECTION
1 3 4 8 2 6 5 7
-1
EOF
